c Generated map
c Size: 9 * 9, weights in range: 1 to 10, walls: True, with ratio 0.05
c dim 3 of 7
c
p sp 81 129
c graph contains 81 nodes and 129 arcs
c
a 1 10 4
a 10 1 4
a 1 2 2
a 2 1 2
a 2 11 5
a 11 2 5
a 2 3 1
a 3 2 1
a 3 12 3
a 12 3 3
a 3 4 10
a 4 3 10
a 4 13 6
a 13 4 6
a 4 5 4
a 5 4 4
a 5 14 10
a 14 5 10
a 5 6 8
a 6 5 8
a 6 15 4
a 15 6 4
a 6 7 6
a 7 6 6
a 7 16 6
a 16 7 6
a 9 18 10
a 18 9 10
a 10 19 5
a 19 10 5
a 10 11 6
a 11 10 6
a 11 20 2
a 20 11 2
a 11 12 7
a 12 11 7
a 12 21 1
a 21 12 1
a 12 13 8
a 13 12 8
a 13 22 9
a 22 13 9
a 13 14 7
a 14 13 7
a 14 23 5
a 23 14 5
a 14 15 1
a 15 14 1
a 15 24 8
a 24 15 8
a 15 16 7
a 16 15 7
a 16 25 9
a 25 16 9
a 16 17 4
a 17 16 4
a 17 26 7
a 26 17 7
a 17 18 10
a 18 17 10
a 18 27 10
a 27 18 10
a 19 28 8
a 28 19 8
a 19 20 1
a 20 19 1
a 20 29 8
a 29 20 8
a 20 21 4
a 21 20 4
a 21 30 7
a 30 21 7
a 21 22 5
a 22 21 5
a 22 31 9
a 31 22 9
a 22 23 8
a 23 22 8
a 23 32 2
a 32 23 2
a 23 24 5
a 24 23 5
a 24 33 3
a 33 24 3
a 24 25 10
a 25 24 10
a 25 34 9
a 34 25 9
a 25 26 3
a 26 25 3
a 26 35 2
a 35 26 2
a 26 27 5
a 27 26 5
a 27 36 4
a 36 27 4
a 28 37 2
a 37 28 2
a 28 29 9
a 29 28 9
a 29 38 6
a 38 29 6
a 29 30 1
a 30 29 1
a 30 39 1
a 39 30 1
a 30 31 4
a 31 30 4
a 31 40 9
a 40 31 9
a 31 32 9
a 32 31 9
a 32 41 7
a 41 32 7
a 32 33 3
a 33 32 3
a 33 34 2
a 34 33 2
a 34 43 2
a 43 34 2
a 34 35 2
a 35 34 2
a 35 36 5
a 36 35 5
a 36 45 5
a 45 36 5
a 37 46 5
a 46 37 5
a 37 38 2
a 38 37 2
a 38 47 4
a 47 38 4
a 38 39 8
a 39 38 8
a 39 48 5
a 48 39 5
a 39 40 5
a 40 39 5
a 40 49 5
a 49 40 5
a 40 41 5
a 41 40 5
a 41 50 5
a 50 41 5
a 45 54 10
a 54 45 10
a 46 55 4
a 55 46 4
a 46 47 6
a 47 46 6
a 47 56 5
a 56 47 5
a 47 48 1
a 48 47 1
a 48 57 7
a 57 48 7
a 48 49 10
a 49 48 10
a 49 58 1
a 58 49 1
a 49 50 4
a 50 49 4
a 50 59 6
a 59 50 6
a 50 51 4
a 51 50 4
a 51 60 10
a 60 51 10
a 53 62 10
a 62 53 10
a 53 54 9
a 54 53 9
a 54 63 8
a 63 54 8
a 55 64 8
a 64 55 8
a 55 56 2
a 56 55 2
a 56 65 6
a 65 56 6
a 56 57 4
a 57 56 4
a 57 66 9
a 66 57 9
a 57 58 9
a 58 57 9
a 58 67 4
a 67 58 4
a 58 59 5
a 59 58 5
a 59 68 6
a 68 59 6
a 59 60 4
a 60 59 4
a 60 69 7
a 69 60 7
a 60 61 5
a 61 60 5
a 61 70 2
a 70 61 2
a 61 62 10
a 62 61 10
a 62 71 5
a 71 62 5
a 62 63 6
a 63 62 6
a 63 72 5
a 72 63 5
a 64 73 2
a 73 64 2
a 64 65 6
a 65 64 6
a 65 74 5
a 74 65 5
a 65 66 4
a 66 65 4
a 66 75 4
a 75 66 4
a 66 67 2
a 67 66 2
a 67 76 8
a 76 67 8
a 67 68 7
a 68 67 7
a 68 77 2
a 77 68 2
a 68 69 3
a 69 68 3
a 69 78 1
a 78 69 1
a 69 70 8
a 70 69 8
a 70 79 5
a 79 70 5
a 70 71 3
a 71 70 3
a 71 80 5
a 80 71 5
a 71 72 6
a 72 71 6
a 72 81 3
a 81 72 3
a 73 74 10
a 74 73 10
a 74 75 5
a 75 74 5
a 75 76 10
a 76 75 10
a 76 77 3
a 77 76 3
a 77 78 7
a 78 77 7
a 78 79 6
a 79 78 6
a 79 80 7
a 80 79 7
a 80 81 3
a 81 80 3
